generated by python script
1.0
    4.4406988361    0.0000000000    -0.0000000000
    0.0000000000    3.3456756312    0.0000000000
    0.0000000000    1.6728378156    5.3595322775
 P
 4
Cart
 0.3618925560    0.0000000000    1.0798736335
 2.5822420407    0.0000000000    4.2796584939
 4.0788062134    1.6728378156    4.2796584939
 1.8584567954    1.6728378156    1.0798736335
